Route #1: 52 3 40 2 50 7 49 20 53 25 45 24
Route #2: 38 35 15 43 47 18 12 6 16
Route #3: 33 54 39 48 41 17
Route #4: 37 9 19 44 10 46 36
Route #5: 31 5 8
Route #6: 21 34 27 4 32
Route #7: 1 42 29 23 14 55 28
Route #8: 22 13 11
Route #9: 26 30 51
cost 1501.1482942406367
